B=4;
D=1;
P=6;
S=6;
demands = [5 5 3 4 5 1 ];
capacities = [6 5 8 7 6 7 ];
dist_start = [4 7 8 6 4 6 ];
dist = [3 10 2 3 8 1 10 4 7 1 7 3 7 2 9 8 10 3 1 3 4 8 6 10 3 3 9 10 8 4 7 2 3 10 4 2 ];
